1
1000
120
497 1
497 1
495 1
485 1
480 1
478 1
474 1
473 1
472 1
470 1
466 1
450 1
446 1
445 1
445 1
444 1
439 1
434 1
430 1
420 1
419 1
414 1
412 1
410 1
407 1
405 1
400 1
397 1
395 1
376 1
372 1
370 1
366 1
366 1
366 1
366 1
366 1
363 1
363 1
362 1
361 1
357 1
357 1
356 1
356 1
355 1
352 1
351 1
350 1
350 1
350 1
347 1
336 1
333 1
329 1
325 1
320 1
315 1
314 1
313 1
307 1
303 1
302 1
301 1
299 1
298 1
298 1
298 1
295 1
294 1
292 1
290 1
288 1
287 1
283 1
282 1
282 1
276 1
275 1
275 1
274 1
273 1
273 1
272 1
272 1
271 1
271 1
269 1
269 1
268 1
267 1
267 1
266 1
263 1
263 1
262 1
262 1
261 1
260 1
259 1
259 1
259 1
258 1
256 1
255 1
254 1
254 1
254 1
253 1
253 1
253 1
253 1
252 1
252 1
252 1
252 1
251 1
251 1
250 1
250 1
